Reading model...
...model read.
creating competitive generators file...
...competitive generators recorded.
Loading data...
.. real-time data read.
Compiling instance...
...instance created.
Creating Offer Mitigation (model will solve as dispatch if TRUE)...
NOTE: storage offers will not be mitigated
...storage offer mitigation file created
Converting model to MPEC...
...converted
NOTE: initial MIP solve with only storage competitive to get feasible solution
Solving...

Welcome to IBM(R) ILOG(R) CPLEX(R) Interactive Optimizer 12.9.0.0
  with Simplex, Mixed Integer & Barrier Optimizers
5725-A06 5725-A29 5724-Y48 5724-Y49 5724-Y54 5724-Y55 5655-Y21
Copyright IBM Corp. 1988, 2019.  All Rights Reserved.

Type 'help' for a list of available commands.
Type 'help' followed by a command name for more
information on commands.

CPLEX> Logfile 'cplex.log' closed.
Logfile 'C:\Users\llavin\Desktop\test85\logs\tmpqpj_r98a.cplex.log' open.
CPLEX> New value for parallel optimization mode: -1
CPLEX> New value for mixed integer optimality gap tolerance: 0.001
CPLEX> New value for deterministic time limit in ticks: 100000
CPLEX> Problem 'C:\Users\llavin\Desktop\test85\logs\tmphf23bnqj.pyomo.lp' read.
Read time = 0.53 sec. (27.84 ticks)
CPLEX> Problem name         : C:\Users\llavin\Desktop\test85\logs\tmphf23bnqj.pyomo.lp
Objective sense      : Maximize
Variables            :  107779  [Nneg: 1,  Box: 44054,  Free: 8928,
                                 Binary: 54796]
Objective nonzeros   :   17426
Linear constraints   :  246995  [Less: 82866,  Greater: 118424,  Equal: 45705]
  Nonzeros           :  580829
  RHS nonzeros       :  134591

Variables            : Min LB: -5000.000        Max UB: 1000000.       
Objective nonzeros   : Min   : 0.1944444        Max   : 2500.000       
Linear constraints   :
  Nonzeros           : Min   : 0.1944444        Max   : 1000000.       
  RHS nonzeros       : Min   : 0.1944444        Max   : 1000000.       
CPLEX> CPXPARAM_Parallel                                -1
CPXPARAM_DetTimeLimit                            100000
CPXPARAM_MIP_Tolerances_MIPGap                   0.001
Tried aggregator 3 times.
MIP Presolve eliminated 181785 rows and 41505 columns.
MIP Presolve added 6048 rows and 0 columns.
MIP Presolve modified 48938 coefficients.
Aggregator did 25862 substitutions.
Reduced MIP has 45396 rows, 38780 columns, and 125812 nonzeros.
Reduced MIP has 15262 binaries, 0 generals, 0 SOSs, and 0 indicators.
Presolve time = 0.61 sec. (333.55 ticks)
Probing fixed 818 vars, tightened 6886 bounds.
Probing time = 0.34 sec. (13.05 ticks)
Tried aggregator 2 times.
MIP Presolve eliminated 1828 rows and 1636 columns.
MIP Presolve modified 5511 coefficients.
Aggregator did 49 substitutions.
Reduced MIP has 43519 rows, 37095 columns, and 120374 nonzeros.
Reduced MIP has 14444 binaries, 0 generals, 0 SOSs, and 0 indicators.
Presolve time = 0.22 sec. (207.07 ticks)
Probing fixed 0 vars, tightened 193 bounds.
Probing time = 0.48 sec. (14.00 ticks)
Clique table members: 78657.
MIP emphasis: balance optimality and feasibility.
MIP search method: dynamic search.
Parallel mode: opportunistic, using up to 32 threads.
Root relaxation solution time = 0.83 sec. (1605.61 ticks)

        Nodes                                         Cuts/
   Node  Left     Objective  IInf  Best Integer    Best Bound    ItCnt     Gap

      0     0        0.0000    10                      0.0000     8395         
*     0+    0                            0.0000        0.0000             0.00%
      0     0        cutoff              0.0000        0.0000     8395    0.00%
Elapsed time = 3.14 sec. (2554.13 ticks, tree = 0.01 MB, solutions = 1)

Root node processing (before b&c):
  Real time             =    3.17 sec. (2557.92 ticks)
Parallel b&c, 32 threads:
  Real time             =    0.00 sec. (0.00 ticks)
  Sync time (average)   =    0.00 sec.
  Wait time (average)   =    0.00 sec.
                          ------------
Total (root+branch&cut) =    3.17 sec. (2557.92 ticks)

Solution pool: 1 solution saved.

MIP - Integer optimal solution:  Objective =  0.0000000000e+00
Solution time =    3.19 sec.  Iterations = 8395  Nodes = 0
Deterministic time = 2558.23 ticks  (802.71 ticks/sec)

CPLEX> Incumbent solution written to file 'C:\Users\llavin\Desktop\test85\logs\tmp3_skxmt5.cplex.sol'.
CPLEX> NOTE: no warmstart specified for MIP iteration, default behavior is true
NOTE: resolving with all competitive generators using storage-only solution to warmstart
Solving...

Welcome to IBM(R) ILOG(R) CPLEX(R) Interactive Optimizer 12.9.0.0
  with Simplex, Mixed Integer & Barrier Optimizers
5725-A06 5725-A29 5724-Y48 5724-Y49 5724-Y54 5724-Y55 5655-Y21
Copyright IBM Corp. 1988, 2019.  All Rights Reserved.

Type 'help' for a list of available commands.
Type 'help' followed by a command name for more
information on commands.

CPLEX> Logfile 'cplex.log' closed.
Logfile 'C:\Users\llavin\Desktop\test85\logs\tmptx9j2lhz.cplex.log' open.
CPLEX> New value for parallel optimization mode: -1
CPLEX> New value for mixed integer optimality gap tolerance: 0.001
CPLEX> New value for deterministic time limit in ticks: 100000
CPLEX> Problem 'C:\Users\llavin\Desktop\test85\logs\tmpwaigp4i1.pyomo.lp' read.
Read time = 0.53 sec. (27.89 ticks)
CPLEX> MIP start file 'C:\Users\llavin\Desktop\test85\logs\tmpv2dct3o8.cplex.mst' read.
CPLEX> Problem name         : C:\Users\llavin\Desktop\test85\logs\tmpwaigp4i1.pyomo.lp
Objective sense      : Maximize
Variables            :  109219  [Nneg: 1,  Box: 45494,  Free: 8928,
                                 Binary: 54796]
Objective nonzeros   :   18818
Linear constraints   :  246995  [Less: 82866,  Greater: 118424,  Equal: 45705]
  Nonzeros           :  580829
  RHS nonzeros       :  134591

Variables            : Min LB: -5000.000        Max UB: 1000000.       
Objective nonzeros   : Min   : 0.1944444        Max   : 2500.000       
Linear constraints   :
  Nonzeros           : Min   : 0.1944444        Max   : 1000000.       
  RHS nonzeros       : Min   : 0.1944444        Max   : 1000000.       
CPLEX> CPXPARAM_Parallel                                -1
CPXPARAM_DetTimeLimit                            100000
CPXPARAM_MIP_Tolerances_MIPGap                   0.001
1 of 1 MIP starts provided solutions.
MIP start 'm1' defined initial solution with objective 0.0000.
Tried aggregator 3 times.
MIP Presolve eliminated 181785 rows and 42945 columns.
MIP Presolve added 6048 rows and 0 columns.
MIP Presolve modified 48938 coefficients.
Aggregator did 25862 substitutions.
Reduced MIP has 45396 rows, 38780 columns, and 125812 nonzeros.
Reduced MIP has 15262 binaries, 0 generals, 0 SOSs, and 0 indicators.
Presolve time = 0.59 sec. (334.25 ticks)
Probing fixed 818 vars, tightened 6886 bounds.
Probing time = 0.36 sec. (13.05 ticks)
Tried aggregator 2 times.
MIP Presolve eliminated 1828 rows and 1636 columns.
MIP Presolve modified 5511 coefficients.
Aggregator did 49 substitutions.
Reduced MIP has 43519 rows, 37095 columns, and 120374 nonzeros.
Reduced MIP has 14444 binaries, 0 generals, 0 SOSs, and 0 indicators.
Presolve time = 0.23 sec. (207.07 ticks)
Probing fixed 0 vars, tightened 158 bounds.
Probing time = 0.52 sec. (14.02 ticks)
Clique table members: 78369.
MIP emphasis: balance optimality and feasibility.
MIP search method: dynamic search.
Parallel mode: opportunistic, using up to 32 threads.
Root relaxation solution time = 0.88 sec. (1612.47 ticks)

        Nodes                                         Cuts/
   Node  Left     Objective  IInf  Best Integer    Best Bound    ItCnt     Gap

*     0+    0                            0.0000  9905391.6325              --- 
      0     0    13005.2177   469        0.0000    13005.2177     8965     --- 
*     0+    0                            0.0000    13005.2177              --- 
      0     0    12715.4593   304        0.0000     Cuts: 304     9299     --- 
      0     0    12715.4593   352        0.0000     Cuts: 478     9481     --- 
      0     0    12715.4593   228        0.0000     Cuts: 458     9601     --- 
      0     0    12715.4593   239        0.0000     Cuts: 227     9736     --- 
      0    30    10904.6971   101        0.0000      Cuts: 85    10433     --- 
Elapsed time = 12.48 sec. (5550.93 ticks, tree = 0.02 MB, solutions = 2)
    235    64        cutoff              0.0000    11618.1736    10696     --- 
    606    71     9336.3720    85        0.0000    11618.1736    10800     --- 
    993   336    infeasible              0.0000    11618.1736    14729     --- 
   1473   351     8560.9166    77        0.0000    11618.1736    14805     --- 
   2020   465     8538.1516    70        0.0000    11618.1736    16313     --- 
   2523  1044     8341.2224    59        0.0000    11618.1736    21651     --- 
   2937  1126     5998.6926    39        0.0000    11618.1736    22237     --- 
   3323  1167     5558.1358    30        0.0000    11618.1736    22424     --- 
   3689  1611     6286.7740    35        0.0000    11618.1736    25146     --- 
   4934  2491     2057.9670    23        0.0000    11618.1736    39278     --- 
Elapsed time = 31.94 sec. (8655.49 ticks, tree = 25.99 MB, solutions = 2)
   6211  2621        cutoff              0.0000    10235.2007    86411     --- 
   8275  1418        cutoff              0.0000      938.2600   167746     --- 
   9243   388        cutoff              0.0000      287.6782   214427     --- 

Cover cuts applied:  5
Implied bound cuts applied:  62
Flow cuts applied:  67
Mixed integer rounding cuts applied:  53
Gomory fractional cuts applied:  13

Root node processing (before b&c):
  Real time             =    7.08 sec. (5455.77 ticks)
Parallel b&c, 32 threads:
  Real time             =   35.23 sec. (6223.15 ticks)
  Sync time (average)   =    3.60 sec.
  Wait time (average)   =    0.00 sec.
                          ------------
Total (root+branch&cut) =   42.31 sec. (11678.91 ticks)

Solution pool: 2 solutions saved.

MIP - Integer optimal solution:  Objective =  1.3226661261e-05
Solution time =   42.34 sec.  Iterations = 217549  Nodes = 9257
Deterministic time = 11679.23 ticks  (275.82 ticks/sec)

CPLEX> Incumbent solution written to file 'C:\Users\llavin\Desktop\test85\logs\tmpnqbm_k83.cplex.sol'.
CPLEX> Exporting results... 
